webassembly/ejemplos_dzn/folder4_json_46.dzn
TERM = { '.', 's(1)', 's(0)', 'local_0'};
null = '.';
s = 4;
n = 7;
ndeps = 0;
max_registers_sz = 4;
NR = 1;
registers = [|'local_0', 's(0)'|];
dependencies = [| |];
GET_ENUM = { GET1, GET2, GET3, GET4, GET5};
SET_ENUM = { SET1, SET2, SET3, SET4, SET5};
TEE_ENUM = { TEE1, TEE2, TEE3, TEE4, TEE5};
N = 2;
OP = { 'i32.const_0', 'i32.load_2' };
in_ops = [0, 1 ];
out_ops = [1, 1 ];
in1 = ['.', 'local_0' ];
in2 = ['.', '.' ];
in3 = ['.', '.' ];
out1 = ['s(1)', 's(0)' ];
out2 = ['.', '.' ];
out3 = ['.', '.' ];
comm = [false, false ];
gas = [1, 1 ];
sz = [1, 1 ];
stor = [false, false ];
lb = [ 1, 1 ];
ub = [ 4, 4 ];
startstack = [ null, null, null, null, null, null, null ];
endstack = [ 's(1)', null, null, null, null, null, null ];
